c created by edge2cnf
p cnf 500 3100
-1 -2 0
-1 -3 0
-1 -4 0
-1 -5 0
-2 -3 0
-2 -4 0
-2 -5 0
-3 -4 0
-3 -5 0
-4 -5 0
1 2 3 4 5 0
-6 -7 0
-6 -8 0
-6 -9 0
-6 -10 0
-7 -8 0
-7 -9 0
-7 -10 0
-8 -9 0
-8 -10 0
-9 -10 0
6 7 8 9 10 0
-11 -12 0
-11 -13 0
-11 -14 0
-11 -15 0
-12 -13 0
-12 -14 0
-12 -15 0
-13 -14 0
-13 -15 0
-14 -15 0
11 12 13 14 15 0
-16 -17 0
-16 -18 0
-16 -19 0
-16 -20 0
-17 -18 0
-17 -19 0
-17 -20 0
-18 -19 0
-18 -20 0
-19 -20 0
16 17 18 19 20 0
-21 -22 0
-21 -23 0
-21 -24 0
-21 -25 0
-22 -23 0
-22 -24 0
-22 -25 0
-23 -24 0
-23 -25 0
-24 -25 0
21 22 23 24 25 0
-26 -27 0
-26 -28 0
-26 -29 0
-26 -30 0
-27 -28 0
-27 -29 0
-27 -30 0
-28 -29 0
-28 -30 0
-29 -30 0
26 27 28 29 30 0
-31 -32 0
-31 -33 0
-31 -34 0
-31 -35 0
-32 -33 0
-32 -34 0
-32 -35 0
-33 -34 0
-33 -35 0
-34 -35 0
31 32 33 34 35 0
-36 -37 0
-36 -38 0
-36 -39 0
-36 -40 0
-37 -38 0
-37 -39 0
-37 -40 0
-38 -39 0
-38 -40 0
-39 -40 0
36 37 38 39 40 0
-41 -42 0
-41 -43 0
-41 -44 0
-41 -45 0
-42 -43 0
-42 -44 0
-42 -45 0
-43 -44 0
-43 -45 0
-44 -45 0
41 42 43 44 45 0
-46 -47 0
-46 -48 0
-46 -49 0
-46 -50 0
-47 -48 0
-47 -49 0
-47 -50 0
-48 -49 0
-48 -50 0
-49 -50 0
46 47 48 49 50 0
-51 -52 0
-51 -53 0
-51 -54 0
-51 -55 0
-52 -53 0
-52 -54 0
-52 -55 0
-53 -54 0
-53 -55 0
-54 -55 0
51 52 53 54 55 0
-56 -57 0
-56 -58 0
-56 -59 0
-56 -60 0
-57 -58 0
-57 -59 0
-57 -60 0
-58 -59 0
-58 -60 0
-59 -60 0
56 57 58 59 60 0
-61 -62 0
-61 -63 0
-61 -64 0
-61 -65 0
-62 -63 0
-62 -64 0
-62 -65 0
-63 -64 0
-63 -65 0
-64 -65 0
61 62 63 64 65 0
-66 -67 0
-66 -68 0
-66 -69 0
-66 -70 0
-67 -68 0
-67 -69 0
-67 -70 0
-68 -69 0
-68 -70 0
-69 -70 0
66 67 68 69 70 0
-71 -72 0
-71 -73 0
-71 -74 0
-71 -75 0
-72 -73 0
-72 -74 0
-72 -75 0
-73 -74 0
-73 -75 0
-74 -75 0
71 72 73 74 75 0
-76 -77 0
-76 -78 0
-76 -79 0
-76 -80 0
-77 -78 0
-77 -79 0
-77 -80 0
-78 -79 0
-78 -80 0
-79 -80 0
76 77 78 79 80 0
-81 -82 0
-81 -83 0
-81 -84 0
-81 -85 0
-82 -83 0
-82 -84 0
-82 -85 0
-83 -84 0
-83 -85 0
-84 -85 0
81 82 83 84 85 0
-86 -87 0
-86 -88 0
-86 -89 0
-86 -90 0
-87 -88 0
-87 -89 0
-87 -90 0
-88 -89 0
-88 -90 0
-89 -90 0
86 87 88 89 90 0
-91 -92 0
-91 -93 0
-91 -94 0
-91 -95 0
-92 -93 0
-92 -94 0
-92 -95 0
-93 -94 0
-93 -95 0
-94 -95 0
91 92 93 94 95 0
-96 -97 0
-96 -98 0
-96 -99 0
-96 -100 0
-97 -98 0
-97 -99 0
-97 -100 0
-98 -99 0
-98 -100 0
-99 -100 0
96 97 98 99 100 0
-101 -102 0
-101 -103 0
-101 -104 0
-101 -105 0
-102 -103 0
-102 -104 0
-102 -105 0
-103 -104 0
-103 -105 0
-104 -105 0
101 102 103 104 105 0
-106 -107 0
-106 -108 0
-106 -109 0
-106 -110 0
-107 -108 0
-107 -109 0
-107 -110 0
-108 -109 0
-108 -110 0
-109 -110 0
106 107 108 109 110 0
-111 -112 0
-111 -113 0
-111 -114 0
-111 -115 0
-112 -113 0
-112 -114 0
-112 -115 0
-113 -114 0
-113 -115 0
-114 -115 0
111 112 113 114 115 0
-116 -117 0
-116 -118 0
-116 -119 0
-116 -120 0
-117 -118 0
-117 -119 0
-117 -120 0
-118 -119 0
-118 -120 0
-119 -120 0
116 117 118 119 120 0
-121 -122 0
-121 -123 0
-121 -124 0
-121 -125 0
-122 -123 0
-122 -124 0
-122 -125 0
-123 -124 0
-123 -125 0
-124 -125 0
121 122 123 124 125 0
-126 -127 0
-126 -128 0
-126 -129 0
-126 -130 0
-127 -128 0
-127 -129 0
-127 -130 0
-128 -129 0
-128 -130 0
-129 -130 0
126 127 128 129 130 0
-131 -132 0
-131 -133 0
-131 -134 0
-131 -135 0
-132 -133 0
-132 -134 0
-132 -135 0
-133 -134 0
-133 -135 0
-134 -135 0
131 132 133 134 135 0
-136 -137 0
-136 -138 0
-136 -139 0
-136 -140 0
-137 -138 0
-137 -139 0
-137 -140 0
-138 -139 0
-138 -140 0
-139 -140 0
136 137 138 139 140 0
-141 -142 0
-141 -143 0
-141 -144 0
-141 -145 0
-142 -143 0
-142 -144 0
-142 -145 0
-143 -144 0
-143 -145 0
-144 -145 0
141 142 143 144 145 0
-146 -147 0
-146 -148 0
-146 -149 0
-146 -150 0
-147 -148 0
-147 -149 0
-147 -150 0
-148 -149 0
-148 -150 0
-149 -150 0
146 147 148 149 150 0
-151 -152 0
-151 -153 0
-151 -154 0
-151 -155 0
-152 -153 0
-152 -154 0
-152 -155 0
-153 -154 0
-153 -155 0
-154 -155 0
151 152 153 154 155 0
-156 -157 0
-156 -158 0
-156 -159 0
-156 -160 0
-157 -158 0
-157 -159 0
-157 -160 0
-158 -159 0
-158 -160 0
-159 -160 0
156 157 158 159 160 0
-161 -162 0
-161 -163 0
-161 -164 0
-161 -165 0
-162 -163 0
-162 -164 0
-162 -165 0
-163 -164 0
-163 -165 0
-164 -165 0
161 162 163 164 165 0
-166 -167 0
-166 -168 0
-166 -169 0
-166 -170 0
-167 -168 0
-167 -169 0
-167 -170 0
-168 -169 0
-168 -170 0
-169 -170 0
166 167 168 169 170 0
-171 -172 0
-171 -173 0
-171 -174 0
-171 -175 0
-172 -173 0
-172 -174 0
-172 -175 0
-173 -174 0
-173 -175 0
-174 -175 0
171 172 173 174 175 0
-176 -177 0
-176 -178 0
-176 -179 0
-176 -180 0
-177 -178 0
-177 -179 0
-177 -180 0
-178 -179 0
-178 -180 0
-179 -180 0
176 177 178 179 180 0
-181 -182 0
-181 -183 0
-181 -184 0
-181 -185 0
-182 -183 0
-182 -184 0
-182 -185 0
-183 -184 0
-183 -185 0
-184 -185 0
181 182 183 184 185 0
-186 -187 0
-186 -188 0
-186 -189 0
-186 -190 0
-187 -188 0
-187 -189 0
-187 -190 0
-188 -189 0
-188 -190 0
-189 -190 0
186 187 188 189 190 0
-191 -192 0
-191 -193 0
-191 -194 0
-191 -195 0
-192 -193 0
-192 -194 0
-192 -195 0
-193 -194 0
-193 -195 0
-194 -195 0
191 192 193 194 195 0
-196 -197 0
-196 -198 0
-196 -199 0
-196 -200 0
-197 -198 0
-197 -199 0
-197 -200 0
-198 -199 0
-198 -200 0
-199 -200 0
196 197 198 199 200 0
-201 -202 0
-201 -203 0
-201 -204 0
-201 -205 0
-202 -203 0
-202 -204 0
-202 -205 0
-203 -204 0
-203 -205 0
-204 -205 0
201 202 203 204 205 0
-206 -207 0
-206 -208 0
-206 -209 0
-206 -210 0
-207 -208 0
-207 -209 0
-207 -210 0
-208 -209 0
-208 -210 0
-209 -210 0
206 207 208 209 210 0
-211 -212 0
-211 -213 0
-211 -214 0
-211 -215 0
-212 -213 0
-212 -214 0
-212 -215 0
-213 -214 0
-213 -215 0
-214 -215 0
211 212 213 214 215 0
-216 -217 0
-216 -218 0
-216 -219 0
-216 -220 0
-217 -218 0
-217 -219 0
-217 -220 0
-218 -219 0
-218 -220 0
-219 -220 0
216 217 218 219 220 0
-221 -222 0
-221 -223 0
-221 -224 0
-221 -225 0
-222 -223 0
-222 -224 0
-222 -225 0
-223 -224 0
-223 -225 0
-224 -225 0
221 222 223 224 225 0
-226 -227 0
-226 -228 0
-226 -229 0
-226 -230 0
-227 -228 0
-227 -229 0
-227 -230 0
-228 -229 0
-228 -230 0
-229 -230 0
226 227 228 229 230 0
-231 -232 0
-231 -233 0
-231 -234 0
-231 -235 0
-232 -233 0
-232 -234 0
-232 -235 0
-233 -234 0
-233 -235 0
-234 -235 0
231 232 233 234 235 0
-236 -237 0
-236 -238 0
-236 -239 0
-236 -240 0
-237 -238 0
-237 -239 0
-237 -240 0
-238 -239 0
-238 -240 0
-239 -240 0
236 237 238 239 240 0
-241 -242 0
-241 -243 0
-241 -244 0
-241 -245 0
-242 -243 0
-242 -244 0
-242 -245 0
-243 -244 0
-243 -245 0
-244 -245 0
241 242 243 244 245 0
-246 -247 0
-246 -248 0
-246 -249 0
-246 -250 0
-247 -248 0
-247 -249 0
-247 -250 0
-248 -249 0
-248 -250 0
-249 -250 0
246 247 248 249 250 0
-251 -252 0
-251 -253 0
-251 -254 0
-251 -255 0
-252 -253 0
-252 -254 0
-252 -255 0
-253 -254 0
-253 -255 0
-254 -255 0
251 252 253 254 255 0
-256 -257 0
-256 -258 0
-256 -259 0
-256 -260 0
-257 -258 0
-257 -259 0
-257 -260 0
-258 -259 0
-258 -260 0
-259 -260 0
256 257 258 259 260 0
-261 -262 0
-261 -263 0
-261 -264 0
-261 -265 0
-262 -263 0
-262 -264 0
-262 -265 0
-263 -264 0
-263 -265 0
-264 -265 0
261 262 263 264 265 0
-266 -267 0
-266 -268 0
-266 -269 0
-266 -270 0
-267 -268 0
-267 -269 0
-267 -270 0
-268 -269 0
-268 -270 0
-269 -270 0
266 267 268 269 270 0
-271 -272 0
-271 -273 0
-271 -274 0
-271 -275 0
-272 -273 0
-272 -274 0
-272 -275 0
-273 -274 0
-273 -275 0
-274 -275 0
271 272 273 274 275 0
-276 -277 0
-276 -278 0
-276 -279 0
-276 -280 0
-277 -278 0
-277 -279 0
-277 -280 0
-278 -279 0
-278 -280 0
-279 -280 0
276 277 278 279 280 0
-281 -282 0
-281 -283 0
-281 -284 0
-281 -285 0
-282 -283 0
-282 -284 0
-282 -285 0
-283 -284 0
-283 -285 0
-284 -285 0
281 282 283 284 285 0
-286 -287 0
-286 -288 0
-286 -289 0
-286 -290 0
-287 -288 0
-287 -289 0
-287 -290 0
-288 -289 0
-288 -290 0
-289 -290 0
286 287 288 289 290 0
-291 -292 0
-291 -293 0
-291 -294 0
-291 -295 0
-292 -293 0
-292 -294 0
-292 -295 0
-293 -294 0
-293 -295 0
-294 -295 0
291 292 293 294 295 0
-296 -297 0
-296 -298 0
-296 -299 0
-296 -300 0
-297 -298 0
-297 -299 0
-297 -300 0
-298 -299 0
-298 -300 0
-299 -300 0
296 297 298 299 300 0
-301 -302 0
-301 -303 0
-301 -304 0
-301 -305 0
-302 -303 0
-302 -304 0
-302 -305 0
-303 -304 0
-303 -305 0
-304 -305 0
301 302 303 304 305 0
-306 -307 0
-306 -308 0
-306 -309 0
-306 -310 0
-307 -308 0
-307 -309 0
-307 -310 0
-308 -309 0
-308 -310 0
-309 -310 0
306 307 308 309 310 0
-311 -312 0
-311 -313 0
-311 -314 0
-311 -315 0
-312 -313 0
-312 -314 0
-312 -315 0
-313 -314 0
-313 -315 0
-314 -315 0
311 312 313 314 315 0
-316 -317 0
-316 -318 0
-316 -319 0
-316 -320 0
-317 -318 0
-317 -319 0
-317 -320 0
-318 -319 0
-318 -320 0
-319 -320 0
316 317 318 319 320 0
-321 -322 0
-321 -323 0
-321 -324 0
-321 -325 0
-322 -323 0
-322 -324 0
-322 -325 0
-323 -324 0
-323 -325 0
-324 -325 0
321 322 323 324 325 0
-326 -327 0
-326 -328 0
-326 -329 0
-326 -330 0
-327 -328 0
-327 -329 0
-327 -330 0
-328 -329 0
-328 -330 0
-329 -330 0
326 327 328 329 330 0
-331 -332 0
-331 -333 0
-331 -334 0
-331 -335 0
-332 -333 0
-332 -334 0
-332 -335 0
-333 -334 0
-333 -335 0
-334 -335 0
331 332 333 334 335 0
-336 -337 0
-336 -338 0
-336 -339 0
-336 -340 0
-337 -338 0
-337 -339 0
-337 -340 0
-338 -339 0
-338 -340 0
-339 -340 0
336 337 338 339 340 0
-341 -342 0
-341 -343 0
-341 -344 0
-341 -345 0
-342 -343 0
-342 -344 0
-342 -345 0
-343 -344 0
-343 -345 0
-344 -345 0
341 342 343 344 345 0
-346 -347 0
-346 -348 0
-346 -349 0
-346 -350 0
-347 -348 0
-347 -349 0
-347 -350 0
-348 -349 0
-348 -350 0
-349 -350 0
346 347 348 349 350 0
-351 -352 0
-351 -353 0
-351 -354 0
-351 -355 0
-352 -353 0
-352 -354 0
-352 -355 0
-353 -354 0
-353 -355 0
-354 -355 0
351 352 353 354 355 0
-356 -357 0
-356 -358 0
-356 -359 0
-356 -360 0
-357 -358 0
-357 -359 0
-357 -360 0
-358 -359 0
-358 -360 0
-359 -360 0
356 357 358 359 360 0
-361 -362 0
-361 -363 0
-361 -364 0
-361 -365 0
-362 -363 0
-362 -364 0
-362 -365 0
-363 -364 0
-363 -365 0
-364 -365 0
361 362 363 364 365 0
-366 -367 0
-366 -368 0
-366 -369 0
-366 -370 0
-367 -368 0
-367 -369 0
-367 -370 0
-368 -369 0
-368 -370 0
-369 -370 0
366 367 368 369 370 0
-371 -372 0
-371 -373 0
-371 -374 0
-371 -375 0
-372 -373 0
-372 -374 0
-372 -375 0
-373 -374 0
-373 -375 0
-374 -375 0
371 372 373 374 375 0
-376 -377 0
-376 -378 0
-376 -379 0
-376 -380 0
-377 -378 0
-377 -379 0
-377 -380 0
-378 -379 0
-378 -380 0
-379 -380 0
376 377 378 379 380 0
-381 -382 0
-381 -383 0
-381 -384 0
-381 -385 0
-382 -383 0
-382 -384 0
-382 -385 0
-383 -384 0
-383 -385 0
-384 -385 0
381 382 383 384 385 0
-386 -387 0
-386 -388 0
-386 -389 0
-386 -390 0
-387 -388 0
-387 -389 0
-387 -390 0
-388 -389 0
-388 -390 0
-389 -390 0
386 387 388 389 390 0
-391 -392 0
-391 -393 0
-391 -394 0
-391 -395 0
-392 -393 0
-392 -394 0
-392 -395 0
-393 -394 0
-393 -395 0
-394 -395 0
391 392 393 394 395 0
-396 -397 0
-396 -398 0
-396 -399 0
-396 -400 0
-397 -398 0
-397 -399 0
-397 -400 0
-398 -399 0
-398 -400 0
-399 -400 0
396 397 398 399 400 0
-401 -402 0
-401 -403 0
-401 -404 0
-401 -405 0
-402 -403 0
-402 -404 0
-402 -405 0
-403 -404 0
-403 -405 0
-404 -405 0
401 402 403 404 405 0
-406 -407 0
-406 -408 0
-406 -409 0
-406 -410 0
-407 -408 0
-407 -409 0
-407 -410 0
-408 -409 0
-408 -410 0
-409 -410 0
406 407 408 409 410 0
-411 -412 0
-411 -413 0
-411 -414 0
-411 -415 0
-412 -413 0
-412 -414 0
-412 -415 0
-413 -414 0
-413 -415 0
-414 -415 0
411 412 413 414 415 0
-416 -417 0
-416 -418 0
-416 -419 0
-416 -420 0
-417 -418 0
-417 -419 0
-417 -420 0
-418 -419 0
-418 -420 0
-419 -420 0
416 417 418 419 420 0
-421 -422 0
-421 -423 0
-421 -424 0
-421 -425 0
-422 -423 0
-422 -424 0
-422 -425 0
-423 -424 0
-423 -425 0
-424 -425 0
421 422 423 424 425 0
-426 -427 0
-426 -428 0
-426 -429 0
-426 -430 0
-427 -428 0
-427 -429 0
-427 -430 0
-428 -429 0
-428 -430 0
-429 -430 0
426 427 428 429 430 0
-431 -432 0
-431 -433 0
-431 -434 0
-431 -435 0
-432 -433 0
-432 -434 0
-432 -435 0
-433 -434 0
-433 -435 0
-434 -435 0
431 432 433 434 435 0
-436 -437 0
-436 -438 0
-436 -439 0
-436 -440 0
-437 -438 0
-437 -439 0
-437 -440 0
-438 -439 0
-438 -440 0
-439 -440 0
436 437 438 439 440 0
-441 -442 0
-441 -443 0
-441 -444 0
-441 -445 0
-442 -443 0
-442 -444 0
-442 -445 0
-443 -444 0
-443 -445 0
-444 -445 0
441 442 443 444 445 0
-446 -447 0
-446 -448 0
-446 -449 0
-446 -450 0
-447 -448 0
-447 -449 0
-447 -450 0
-448 -449 0
-448 -450 0
-449 -450 0
446 447 448 449 450 0
-451 -452 0
-451 -453 0
-451 -454 0
-451 -455 0
-452 -453 0
-452 -454 0
-452 -455 0
-453 -454 0
-453 -455 0
-454 -455 0
451 452 453 454 455 0
-456 -457 0
-456 -458 0
-456 -459 0
-456 -460 0
-457 -458 0
-457 -459 0
-457 -460 0
-458 -459 0
-458 -460 0
-459 -460 0
456 457 458 459 460 0
-461 -462 0
-461 -463 0
-461 -464 0
-461 -465 0
-462 -463 0
-462 -464 0
-462 -465 0
-463 -464 0
-463 -465 0
-464 -465 0
461 462 463 464 465 0
-466 -467 0
-466 -468 0
-466 -469 0
-466 -470 0
-467 -468 0
-467 -469 0
-467 -470 0
-468 -469 0
-468 -470 0
-469 -470 0
466 467 468 469 470 0
-471 -472 0
-471 -473 0
-471 -474 0
-471 -475 0
-472 -473 0
-472 -474 0
-472 -475 0
-473 -474 0
-473 -475 0
-474 -475 0
471 472 473 474 475 0
-476 -477 0
-476 -478 0
-476 -479 0
-476 -480 0
-477 -478 0
-477 -479 0
-477 -480 0
-478 -479 0
-478 -480 0
-479 -480 0
476 477 478 479 480 0
-481 -482 0
-481 -483 0
-481 -484 0
-481 -485 0
-482 -483 0
-482 -484 0
-482 -485 0
-483 -484 0
-483 -485 0
-484 -485 0
481 482 483 484 485 0
-486 -487 0
-486 -488 0
-486 -489 0
-486 -490 0
-487 -488 0
-487 -489 0
-487 -490 0
-488 -489 0
-488 -490 0
-489 -490 0
486 487 488 489 490 0
-491 -492 0
-491 -493 0
-491 -494 0
-491 -495 0
-492 -493 0
-492 -494 0
-492 -495 0
-493 -494 0
-493 -495 0
-494 -495 0
491 492 493 494 495 0
-496 -497 0
-496 -498 0
-496 -499 0
-496 -500 0
-497 -498 0
-497 -499 0
-497 -500 0
-498 -499 0
-498 -500 0
-499 -500 0
496 497 498 499 500 0
-56 -71 0
-57 -72 0
-58 -73 0
-59 -74 0
-60 -75 0
-86 -96 0
-87 -97 0
-88 -98 0
-89 -99 0
-90 -100 0
-96 -116 0
-97 -117 0
-98 -118 0
-99 -119 0
-100 -120 0
-106 -111 0
-107 -112 0
-108 -113 0
-109 -114 0
-110 -115 0
-106 -116 0
-107 -117 0
-108 -118 0
-109 -119 0
-110 -120 0
-131 -146 0
-132 -147 0
-133 -148 0
-134 -149 0
-135 -150 0
-141 -156 0
-142 -157 0
-143 -158 0
-144 -159 0
-145 -160 0
-166 -176 0
-167 -177 0
-168 -178 0
-169 -179 0
-170 -180 0
-171 -186 0
-172 -187 0
-173 -188 0
-174 -189 0
-175 -190 0
-186 -191 0
-187 -192 0
-188 -193 0
-189 -194 0
-190 -195 0
-186 -196 0
-187 -197 0
-188 -198 0
-189 -199 0
-190 -200 0
-191 -206 0
-192 -207 0
-193 -208 0
-194 -209 0
-195 -210 0
-201 -206 0
-202 -207 0
-203 -208 0
-204 -209 0
-205 -210 0
-241 -261 0
-242 -262 0
-243 -263 0
-244 -264 0
-245 -265 0
-246 -251 0
-247 -252 0
-248 -253 0
-249 -254 0
-250 -255 0
-296 -306 0
-297 -307 0
-298 -308 0
-299 -309 0
-300 -310 0
-326 -341 0
-327 -342 0
-328 -343 0
-329 -344 0
-330 -345 0
-331 -341 0
-332 -342 0
-333 -343 0
-334 -344 0
-335 -345 0
-346 -351 0
-347 -352 0
-348 -353 0
-349 -354 0
-350 -355 0
-366 -371 0
-367 -372 0
-368 -373 0
-369 -374 0
-370 -375 0
-371 -376 0
-372 -377 0
-373 -378 0
-374 -379 0
-375 -380 0
-411 -426 0
-412 -427 0
-413 -428 0
-414 -429 0
-415 -430 0
-416 -426 0
-417 -427 0
-418 -428 0
-419 -429 0
-420 -430 0
-421 -441 0
-422 -442 0
-423 -443 0
-424 -444 0
-425 -445 0
-431 -441 0
-432 -442 0
-433 -443 0
-434 -444 0
-435 -445 0
-431 -446 0
-432 -447 0
-433 -448 0
-434 -449 0
-435 -450 0
-436 -441 0
-437 -442 0
-438 -443 0
-439 -444 0
-440 -445 0
-441 -451 0
-442 -452 0
-443 -453 0
-444 -454 0
-445 -455 0
-446 -456 0
-447 -457 0
-448 -458 0
-449 -459 0
-450 -460 0
-446 -461 0
-447 -462 0
-448 -463 0
-449 -464 0
-450 -465 0
-461 -471 0
-462 -472 0
-463 -473 0
-464 -474 0
-465 -475 0
-16 -496 0
-17 -497 0
-18 -498 0
-19 -499 0
-20 -500 0
-11 -496 0
-12 -497 0
-13 -498 0
-14 -499 0
-15 -500 0
-6 -496 0
-7 -497 0
-8 -498 0
-9 -499 0
-10 -500 0
-11 -491 0
-12 -492 0
-13 -493 0
-14 -494 0
-15 -495 0
-6 -491 0
-7 -492 0
-8 -493 0
-9 -494 0
-10 -495 0
-1 -486 0
-2 -487 0
-3 -488 0
-4 -489 0
-5 -490 0
-486 -496 0
-487 -497 0
-488 -498 0
-489 -499 0
-490 -500 0
-486 -491 0
-487 -492 0
-488 -493 0
-489 -494 0
-490 -495 0
-481 -496 0
-482 -497 0
-483 -498 0
-484 -499 0
-485 -500 0
-481 -486 0
-482 -487 0
-483 -488 0
-484 -489 0
-485 -490 0
-476 -481 0
-477 -482 0
-478 -483 0
-479 -484 0
-480 -485 0
-471 -491 0
-472 -492 0
-473 -493 0
-474 -494 0
-475 -495 0
-471 -481 0
-472 -482 0
-473 -483 0
-474 -484 0
-475 -485 0
-466 -481 0
-467 -482 0
-468 -483 0
-469 -484 0
-470 -485 0
-466 -476 0
-467 -477 0
-468 -478 0
-469 -479 0
-470 -480 0
-466 -471 0
-467 -472 0
-468 -473 0
-469 -474 0
-470 -475 0
-461 -466 0
-462 -467 0
-463 -468 0
-464 -469 0
-465 -470 0
-456 -476 0
-457 -477 0
-458 -478 0
-459 -479 0
-460 -480 0
-456 -471 0
-457 -472 0
-458 -473 0
-459 -474 0
-460 -475 0
-456 -466 0
-457 -467 0
-458 -468 0
-459 -469 0
-460 -470 0
-451 -456 0
-452 -457 0
-453 -458 0
-454 -459 0
-455 -460 0
-446 -466 0
-447 -467 0
-448 -468 0
-449 -469 0
-450 -470 0
-441 -461 0
-442 -462 0
-443 -463 0
-444 -464 0
-445 -465 0
-441 -456 0
-442 -457 0
-443 -458 0
-444 -459 0
-445 -460 0
-436 -456 0
-437 -457 0
-438 -458 0
-439 -459 0
-440 -460 0
-436 -451 0
-437 -452 0
-438 -453 0
-439 -454 0
-440 -455 0
-431 -451 0
-432 -452 0
-433 -453 0
-434 -454 0
-435 -455 0
-431 -436 0
-432 -437 0
-433 -438 0
-434 -439 0
-435 -440 0
-426 -446 0
-427 -447 0
-428 -448 0
-429 -449 0
-430 -450 0
-426 -441 0
-427 -442 0
-428 -443 0
-429 -444 0
-430 -445 0
-411 -421 0
-412 -422 0
-413 -423 0
-414 -424 0
-415 -425 0
-411 -416 0
-412 -417 0
-413 -418 0
-414 -419 0
-415 -420 0
-406 -421 0
-407 -422 0
-408 -423 0
-409 -424 0
-410 -425 0
-406 -411 0
-407 -412 0
-408 -413 0
-409 -414 0
-410 -415 0
-401 -421 0
-402 -422 0
-403 -423 0
-404 -424 0
-405 -425 0
-401 -416 0
-402 -417 0
-403 -418 0
-404 -419 0
-405 -420 0
-401 -411 0
-402 -412 0
-403 -413 0
-404 -414 0
-405 -415 0
-401 -406 0
-402 -407 0
-403 -408 0
-404 -409 0
-405 -410 0
-396 -416 0
-397 -417 0
-398 -418 0
-399 -419 0
-400 -420 0
-396 -401 0
-397 -402 0
-398 -403 0
-399 -404 0
-400 -405 0
-391 -411 0
-392 -412 0
-393 -413 0
-394 -414 0
-395 -415 0
-391 -396 0
-392 -397 0
-393 -398 0
-394 -399 0
-395 -400 0
-386 -406 0
-387 -407 0
-388 -408 0
-389 -409 0
-390 -410 0
-386 -391 0
-387 -392 0
-388 -393 0
-389 -394 0
-390 -395 0
-381 -396 0
-382 -397 0
-383 -398 0
-384 -399 0
-385 -400 0
-381 -391 0
-382 -392 0
-383 -393 0
-384 -394 0
-385 -395 0
-376 -391 0
-377 -392 0
-378 -393 0
-379 -394 0
-380 -395 0
-371 -391 0
-372 -392 0
-373 -393 0
-374 -394 0
-375 -395 0
-371 -386 0
-372 -387 0
-373 -388 0
-374 -389 0
-375 -390 0
-371 -381 0
-372 -382 0
-373 -383 0
-374 -384 0
-375 -385 0
-366 -386 0
-367 -387 0
-368 -388 0
-369 -389 0
-370 -390 0
-366 -381 0
-367 -382 0
-368 -383 0
-369 -384 0
-370 -385 0
-361 -371 0
-362 -372 0
-363 -373 0
-364 -374 0
-365 -375 0
-361 -366 0
-362 -367 0
-363 -368 0
-364 -369 0
-365 -370 0
-356 -371 0
-357 -372 0
-358 -373 0
-359 -374 0
-360 -375 0
-356 -361 0
-357 -362 0
-358 -363 0
-359 -364 0
-360 -365 0
-351 -361 0
-352 -362 0
-353 -363 0
-354 -364 0
-355 -365 0
-351 -356 0
-352 -357 0
-353 -358 0
-354 -359 0
-355 -360 0
-346 -356 0
-347 -357 0
-348 -358 0
-349 -359 0
-350 -360 0
-341 -346 0
-342 -347 0
-343 -348 0
-344 -349 0
-345 -350 0
-336 -356 0
-337 -357 0
-338 -358 0
-339 -359 0
-340 -360 0
-336 -341 0
-337 -342 0
-338 -343 0
-339 -344 0
-340 -345 0
-331 -351 0
-332 -352 0
-333 -353 0
-334 -354 0
-335 -355 0
-331 -346 0
-332 -347 0
-333 -348 0
-334 -349 0
-335 -350 0
-326 -331 0
-327 -332 0
-328 -333 0
-329 -334 0
-330 -335 0
-321 -341 0
-322 -342 0
-323 -343 0
-324 -344 0
-325 -345 0
-321 -336 0
-322 -337 0
-323 -338 0
-324 -339 0
-325 -340 0
-316 -336 0
-317 -337 0
-318 -338 0
-319 -339 0
-320 -340 0
-316 -326 0
-317 -327 0
-318 -328 0
-319 -329 0
-320 -330 0
-311 -326 0
-312 -327 0
-313 -328 0
-314 -329 0
-315 -330 0
-311 -316 0
-312 -317 0
-313 -318 0
-314 -319 0
-315 -320 0
-306 -326 0
-307 -327 0
-308 -328 0
-309 -329 0
-310 -330 0
-306 -316 0
-307 -317 0
-308 -318 0
-309 -319 0
-310 -320 0
-306 -311 0
-307 -312 0
-308 -313 0
-309 -314 0
-310 -315 0
-301 -316 0
-302 -317 0
-303 -318 0
-304 -319 0
-305 -320 0
-301 -311 0
-302 -312 0
-303 -313 0
-304 -314 0
-305 -315 0
-296 -311 0
-297 -312 0
-298 -313 0
-299 -314 0
-300 -315 0
-291 -311 0
-292 -312 0
-293 -313 0
-294 -314 0
-295 -315 0
-291 -301 0
-292 -302 0
-293 -303 0
-294 -304 0
-295 -305 0
-286 -306 0
-287 -307 0
-288 -308 0
-289 -309 0
-290 -310 0
-286 -301 0
-287 -302 0
-288 -303 0
-289 -304 0
-290 -305 0
-286 -296 0
-287 -297 0
-288 -298 0
-289 -299 0
-290 -300 0
-286 -291 0
-287 -292 0
-288 -293 0
-289 -294 0
-290 -295 0
-281 -301 0
-282 -302 0
-283 -303 0
-284 -304 0
-285 -305 0
-281 -296 0
-282 -297 0
-283 -298 0
-284 -299 0
-285 -300 0
-276 -291 0
-277 -292 0
-278 -293 0
-279 -294 0
-280 -295 0
-271 -286 0
-272 -287 0
-273 -288 0
-274 -289 0
-275 -290 0
-266 -286 0
-267 -287 0
-268 -288 0
-269 -289 0
-270 -290 0
-266 -271 0
-267 -272 0
-268 -273 0
-269 -274 0
-270 -275 0
-261 -281 0
-262 -282 0
-263 -283 0
-264 -284 0
-265 -285 0
-261 -276 0
-262 -277 0
-263 -278 0
-264 -279 0
-265 -280 0
-256 -276 0
-257 -277 0
-258 -278 0
-259 -279 0
-260 -280 0
-256 -266 0
-257 -267 0
-258 -268 0
-259 -269 0
-260 -270 0
-256 -261 0
-257 -262 0
-258 -263 0
-259 -264 0
-260 -265 0
-251 -271 0
-252 -272 0
-253 -273 0
-254 -274 0
-255 -275 0
-251 -261 0
-252 -262 0
-253 -263 0
-254 -264 0
-255 -265 0
-251 -256 0
-252 -257 0
-253 -258 0
-254 -259 0
-255 -260 0
-246 -261 0
-247 -262 0
-248 -263 0
-249 -264 0
-250 -265 0
-246 -256 0
-247 -257 0
-248 -258 0
-249 -259 0
-250 -260 0
-241 -256 0
-242 -257 0
-243 -258 0
-244 -259 0
-245 -260 0
-241 -251 0
-242 -252 0
-243 -253 0
-244 -254 0
-245 -255 0
-241 -246 0
-242 -247 0
-243 -248 0
-244 -249 0
-245 -250 0
-236 -256 0
-237 -257 0
-238 -258 0
-239 -259 0
-240 -260 0
-231 -246 0
-232 -247 0
-233 -248 0
-234 -249 0
-235 -250 0
-226 -246 0
-227 -247 0
-228 -248 0
-229 -249 0
-230 -250 0
-226 -231 0
-227 -232 0
-228 -233 0
-229 -234 0
-230 -235 0
-221 -241 0
-222 -242 0
-223 -243 0
-224 -244 0
-225 -245 0
-221 -236 0
-222 -237 0
-223 -238 0
-224 -239 0
-225 -240 0
-221 -226 0
-222 -227 0
-223 -228 0
-224 -229 0
-225 -230 0
-211 -226 0
-212 -227 0
-213 -228 0
-214 -229 0
-215 -230 0
-211 -216 0
-212 -217 0
-213 -218 0
-214 -219 0
-215 -220 0
-206 -216 0
-207 -217 0
-208 -218 0
-209 -219 0
-210 -220 0
-201 -221 0
-202 -222 0
-203 -223 0
-204 -224 0
-205 -225 0
-201 -216 0
-202 -217 0
-203 -218 0
-204 -219 0
-205 -220 0
-201 -211 0
-202 -212 0
-203 -213 0
-204 -214 0
-205 -215 0
-196 -206 0
-197 -207 0
-198 -208 0
-199 -209 0
-200 -210 0
-196 -201 0
-197 -202 0
-198 -203 0
-199 -204 0
-200 -205 0
-191 -211 0
-192 -212 0
-193 -213 0
-194 -214 0
-195 -215 0
-191 -201 0
-192 -202 0
-193 -203 0
-194 -204 0
-195 -205 0
-181 -196 0
-182 -197 0
-183 -198 0
-184 -199 0
-185 -200 0
-181 -191 0
-182 -192 0
-183 -193 0
-184 -194 0
-185 -195 0
-171 -191 0
-172 -192 0
-173 -193 0
-174 -194 0
-175 -195 0
-171 -181 0
-172 -182 0
-173 -183 0
-174 -184 0
-175 -185 0
-171 -176 0
-172 -177 0
-173 -178 0
-174 -179 0
-175 -180 0
-166 -171 0
-167 -172 0
-168 -173 0
-169 -174 0
-170 -175 0
-156 -176 0
-157 -177 0
-158 -178 0
-159 -179 0
-160 -180 0
-156 -166 0
-157 -167 0
-158 -168 0
-159 -169 0
-160 -170 0
-156 -161 0
-157 -162 0
-158 -163 0
-159 -164 0
-160 -165 0
-151 -171 0
-152 -172 0
-153 -173 0
-154 -174 0
-155 -175 0
-151 -161 0
-152 -162 0
-153 -163 0
-154 -164 0
-155 -165 0
-151 -156 0
-152 -157 0
-153 -158 0
-154 -159 0
-155 -160 0
-146 -166 0
-147 -167 0
-148 -168 0
-149 -169 0
-150 -170 0
-146 -161 0
-147 -162 0
-148 -163 0
-149 -164 0
-150 -165 0
-141 -161 0
-142 -162 0
-143 -163 0
-144 -164 0
-145 -165 0
-141 -151 0
-142 -152 0
-143 -153 0
-144 -154 0
-145 -155 0
-136 -151 0
-137 -152 0
-138 -153 0
-139 -154 0
-140 -155 0
-136 -146 0
-137 -147 0
-138 -148 0
-139 -149 0
-140 -150 0
-136 -141 0
-137 -142 0
-138 -143 0
-139 -144 0
-140 -145 0
-126 -146 0
-127 -147 0
-128 -148 0
-129 -149 0
-130 -150 0
-126 -141 0
-127 -142 0
-128 -143 0
-129 -144 0
-130 -145 0
-126 -136 0
-127 -137 0
-128 -138 0
-129 -139 0
-130 -140 0
-126 -131 0
-127 -132 0
-128 -133 0
-129 -134 0
-130 -135 0
-121 -136 0
-122 -137 0
-123 -138 0
-124 -139 0
-125 -140 0
-116 -136 0
-117 -137 0
-118 -138 0
-119 -139 0
-120 -140 0
-111 -131 0
-112 -132 0
-113 -133 0
-114 -134 0
-115 -135 0
-111 -121 0
-112 -122 0
-113 -123 0
-114 -124 0
-115 -125 0
-106 -126 0
-107 -127 0
-108 -128 0
-109 -129 0
-110 -130 0
-106 -121 0
-107 -122 0
-108 -123 0
-109 -124 0
-110 -125 0
-101 -116 0
-102 -117 0
-103 -118 0
-104 -119 0
-105 -120 0
-101 -106 0
-102 -107 0
-103 -108 0
-104 -109 0
-105 -110 0
-96 -111 0
-97 -112 0
-98 -113 0
-99 -114 0
-100 -115 0
-96 -106 0
-97 -107 0
-98 -108 0
-99 -109 0
-100 -110 0
-91 -106 0
-92 -107 0
-93 -108 0
-94 -109 0
-95 -110 0
-81 -101 0
-82 -102 0
-83 -103 0
-84 -104 0
-85 -105 0
-81 -91 0
-82 -92 0
-83 -93 0
-84 -94 0
-85 -95 0
-76 -91 0
-77 -92 0
-78 -93 0
-79 -94 0
-80 -95 0
-71 -91 0
-72 -92 0
-73 -93 0
-74 -94 0
-75 -95 0
-71 -76 0
-72 -77 0
-73 -78 0
-74 -79 0
-75 -80 0
-66 -81 0
-67 -82 0
-68 -83 0
-69 -84 0
-70 -85 0
-66 -71 0
-67 -72 0
-68 -73 0
-69 -74 0
-70 -75 0
-56 -61 0
-57 -62 0
-58 -63 0
-59 -64 0
-60 -65 0
-51 -71 0
-52 -72 0
-53 -73 0
-54 -74 0
-55 -75 0
-51 -61 0
-52 -62 0
-53 -63 0
-54 -64 0
-55 -65 0
-46 -66 0
-47 -67 0
-48 -68 0
-49 -69 0
-50 -70 0
-46 -56 0
-47 -57 0
-48 -58 0
-49 -59 0
-50 -60 0
-46 -51 0
-47 -52 0
-48 -53 0
-49 -54 0
-50 -55 0
-41 -56 0
-42 -57 0
-43 -58 0
-44 -59 0
-45 -60 0
-36 -56 0
-37 -57 0
-38 -58 0
-39 -59 0
-40 -60 0
-36 -46 0
-37 -47 0
-38 -48 0
-39 -49 0
-40 -50 0
-31 -41 0
-32 -42 0
-33 -43 0
-34 -44 0
-35 -45 0
-26 -46 0
-27 -47 0
-28 -48 0
-29 -49 0
-30 -50 0
-26 -36 0
-27 -37 0
-28 -38 0
-29 -39 0
-30 -40 0
-21 -36 0
-22 -37 0
-23 -38 0
-24 -39 0
-25 -40 0
-21 -31 0
-22 -32 0
-23 -33 0
-24 -34 0
-25 -35 0
-21 -26 0
-22 -27 0
-23 -28 0
-24 -29 0
-25 -30 0
-16 -36 0
-17 -37 0
-18 -38 0
-19 -39 0
-20 -40 0
-16 -26 0
-17 -27 0
-18 -28 0
-19 -29 0
-20 -30 0
-11 -31 0
-12 -32 0
-13 -33 0
-14 -34 0
-15 -35 0
-11 -26 0
-12 -27 0
-13 -28 0
-14 -29 0
-15 -30 0
-11 -16 0
-12 -17 0
-13 -18 0
-14 -19 0
-15 -20 0
-6 -26 0
-7 -27 0
-8 -28 0
-9 -29 0
-10 -30 0
-6 -21 0
-7 -22 0
-8 -23 0
-9 -24 0
-10 -25 0
-6 -11 0
-7 -12 0
-8 -13 0
-9 -14 0
-10 -15 0
-1 -21 0
-2 -22 0
-3 -23 0
-4 -24 0
-5 -25 0
-1 -6 0
-2 -7 0
-3 -8 0
-4 -9 0
-5 -10 0
-96 -386 0
-97 -387 0
-98 -388 0
-99 -389 0
-100 -390 0
-171 -341 0
-172 -342 0
-173 -343 0
-174 -344 0
-175 -345 0
-41 -171 0
-42 -172 0
-43 -173 0
-44 -174 0
-45 -175 0
-206 -271 0
-207 -272 0
-208 -273 0
-209 -274 0
-210 -275 0
-26 -381 0
-27 -382 0
-28 -383 0
-29 -384 0
-30 -385 0
-11 -176 0
-12 -177 0
-13 -178 0
-14 -179 0
-15 -180 0
-46 -256 0
-47 -257 0
-48 -258 0
-49 -259 0
-50 -260 0
-221 -281 0
-222 -282 0
-223 -283 0
-224 -284 0
-225 -285 0
-151 -476 0
-152 -477 0
-153 -478 0
-154 -479 0
-155 -480 0
-76 -136 0
-77 -137 0
-78 -138 0
-79 -139 0
-80 -140 0
-316 -346 0
-317 -347 0
-318 -348 0
-319 -349 0
-320 -350 0
-31 -441 0
-32 -442 0
-33 -443 0
-34 -444 0
-35 -445 0
-141 -176 0
-142 -177 0
-143 -178 0
-144 -179 0
-145 -180 0
-91 -456 0
-92 -457 0
-93 -458 0
-94 -459 0
-95 -460 0
-1 -76 0
-2 -77 0
-3 -78 0
-4 -79 0
-5 -80 0
-251 -461 0
-252 -462 0
-253 -463 0
-254 -464 0
-255 -465 0
-246 -441 0
-247 -442 0
-248 -443 0
-249 -444 0
-250 -445 0
-101 -226 0
-102 -227 0
-103 -228 0
-104 -229 0
-105 -230 0
-406 -451 0
-407 -452 0
-408 -453 0
-409 -454 0
-410 -455 0
-46 -311 0
-47 -312 0
-48 -313 0
-49 -314 0
-50 -315 0
-201 -331 0
-202 -332 0
-203 -333 0
-204 -334 0
-205 -335 0
-51 -306 0
-52 -307 0
-53 -308 0
-54 -309 0
-55 -310 0
-11 -191 0
-12 -192 0
-13 -193 0
-14 -194 0
-15 -195 0
-66 -226 0
-67 -227 0
-68 -228 0
-69 -229 0
-70 -230 0
-96 -371 0
-97 -372 0
-98 -373 0
-99 -374 0
-100 -375 0
-86 -176 0
-87 -177 0
-88 -178 0
-89 -179 0
-90 -180 0
-31 -356 0
-32 -357 0
-33 -358 0
-34 -359 0
-35 -360 0
-66 -156 0
-67 -157 0
-68 -158 0
-69 -159 0
-70 -160 0
-6 -216 0
-7 -217 0
-8 -218 0
-9 -219 0
-10 -220 0
-191 -266 0
-192 -267 0
-193 -268 0
-194 -269 0
-195 -270 0
-186 -411 0
-187 -412 0
-188 -413 0
-189 -414 0
-190 -415 0
-276 -426 0
-277 -427 0
-278 -428 0
-279 -429 0
-280 -430 0
-146 -336 0
-147 -337 0
-148 -338 0
-149 -339 0
-150 -340 0
-156 -291 0
-157 -292 0
-158 -293 0
-159 -294 0
-160 -295 0
-301 -371 0
-302 -372 0
-303 -373 0
-304 -374 0
-305 -375 0
-296 -376 0
-297 -377 0
-298 -378 0
-299 -379 0
-300 -380 0
-206 -311 0
-207 -312 0
-208 -313 0
-209 -314 0
-210 -315 0
-21 -496 0
-22 -497 0
-23 -498 0
-24 -499 0
-25 -500 0
-6 -121 0
-7 -122 0
-8 -123 0
-9 -124 0
-10 -125 0
-236 -266 0
-237 -267 0
-238 -268 0
-239 -269 0
-240 -270 0
-61 -371 0
-62 -372 0
-63 -373 0
-64 -374 0
-65 -375 0
-266 -366 0
-267 -367 0
-268 -368 0
-269 -369 0
-270 -370 0
-406 -466 0
-407 -467 0
-408 -468 0
-409 -469 0
-410 -470 0
-281 -366 0
-282 -367 0
-283 -368 0
-284 -369 0
-285 -370 0
-121 -391 0
-122 -392 0
-123 -393 0
-124 -394 0
-125 -395 0
-166 -266 0
-167 -267 0
-168 -268 0
-169 -269 0
-170 -270 0
-86 -461 0
-87 -462 0
-88 -463 0
-89 -464 0
-90 -465 0
-21 -326 0
-22 -327 0
-23 -328 0
-24 -329 0
-25 -330 0
-301 -386 0
-302 -387 0
-303 -388 0
-304 -389 0
-305 -390 0
-316 -446 0
-317 -447 0
-318 -448 0
-319 -449 0
-320 -450 0
-41 -366 0
-42 -367 0
-43 -368 0
-44 -369 0
-45 -370 0
-26 -291 0
-27 -292 0
-28 -293 0
-29 -294 0
-30 -295 0
-241 -426 0
-242 -427 0
-243 -428 0
-244 -429 0
-245 -430 0
-191 -411 0
-192 -412 0
-193 -413 0
-194 -414 0
-195 -415 0
-81 -476 0
-82 -477 0
-83 -478 0
-84 -479 0
-85 -480 0
-6 -196 0
-7 -197 0
-8 -198 0
-9 -199 0
-10 -200 0
-151 -371 0
-152 -372 0
-153 -373 0
-154 -374 0
-155 -375 0
-46 -456 0
-47 -457 0
-48 -458 0
-49 -459 0
-50 -460 0
-131 -276 0
-132 -277 0
-133 -278 0
-134 -279 0
-135 -280 0
-196 -396 0
-197 -397 0
-198 -398 0
-199 -399 0
-200 -400 0
-286 -431 0
-287 -432 0
-288 -433 0
-289 -434 0
-290 -435 0
-31 -376 0
-32 -377 0
-33 -378 0
-34 -379 0
-35 -380 0
-346 -406 0
-347 -407 0
-348 -408 0
-349 -409 0
-350 -410 0
-191 -356 0
-192 -357 0
-193 -358 0
-194 -359 0
-195 -360 0
-236 -341 0
-237 -342 0
-238 -343 0
-239 -344 0
-240 -345 0
-366 -476 0
-367 -477 0
-368 -478 0
-369 -479 0
-370 -480 0
-16 -341 0
-17 -342 0
-18 -343 0
-19 -344 0
-20 -345 0
-341 -396 0
-342 -397 0
-343 -398 0
-344 -399 0
-345 -400 0
-1 -316 0
-2 -317 0
-3 -318 0
-4 -319 0
-5 -320 0
-76 -411 0
-77 -412 0
-78 -413 0
-79 -414 0
-80 -415 0
-21 -91 0
-22 -92 0
-23 -93 0
-24 -94 0
-25 -95 0
-211 -236 0
-212 -237 0
-213 -238 0
-214 -239 0
-215 -240 0
-6 -211 0
-7 -212 0
-8 -213 0
-9 -214 0
-10 -215 0
-146 -276 0
-147 -277 0
-148 -278 0
-149 -279 0
-150 -280 0
-181 -241 0
-182 -242 0
-183 -243 0
-184 -244 0
-185 -245 0
-206 -231 0
-207 -232 0
-208 -233 0
-209 -234 0
-210 -235 0
-166 -446 0
-167 -447 0
-168 -448 0
-169 -449 0
-170 -450 0
-61 -316 0
-62 -317 0
-63 -318 0
-64 -319 0
-65 -320 0
-36 -131 0
-37 -132 0
-38 -133 0
-39 -134 0
-40 -135 0
-276 -351 0
-277 -352 0
-278 -353 0
-279 -354 0
-280 -355 0
-51 -246 0
-52 -247 0
-53 -248 0
-54 -249 0
-55 -250 0
-46 -466 0
-47 -467 0
-48 -468 0
-49 -469 0
-50 -470 0
-281 -316 0
-282 -317 0
-283 -318 0
-284 -319 0
-285 -320 0
-121 -341 0
-122 -342 0
-123 -343 0
-124 -344 0
-125 -345 0
-26 -81 0
-27 -82 0
-28 -83 0
-29 -84 0
-30 -85 0
-461 -486 0
-462 -487 0
-463 -488 0
-464 -489 0
-465 -490 0
-196 -301 0
-197 -302 0
-198 -303 0
-199 -304 0
-200 -305 0
-136 -171 0
-137 -172 0
-138 -173 0
-139 -174 0
-140 -175 0
-186 -441 0
-187 -442 0
-188 -443 0
-189 -444 0
-190 -445 0
-231 -306 0
-232 -307 0
-233 -308 0
-234 -309 0
-235 -310 0
-316 -381 0
-317 -382 0
-318 -383 0
-319 -384 0
-320 -385 0
-141 -171 0
-142 -172 0
-143 -173 0
-144 -174 0
-145 -175 0
-296 -471 0
-297 -472 0
-298 -473 0
-299 -474 0
-300 -475 0
-266 -461 0
-267 -462 0
-268 -463 0
-269 -464 0
-270 -465 0
-231 -371 0
-232 -372 0
-233 -373 0
-234 -374 0
-235 -375 0
-31 -156 0
-32 -157 0
-33 -158 0
-34 -159 0
-35 -160 0
-81 -126 0
-82 -127 0
-83 -128 0
-84 -129 0
-85 -130 0
-16 -361 0
-17 -362 0
-18 -363 0
-19 -364 0
-20 -365 0
-11 -146 0
-12 -147 0
-13 -148 0
-14 -149 0
-15 -150 0
-11 -181 0
-12 -182 0
-13 -183 0
-14 -184 0
-15 -185 0
-101 -221 0
-102 -222 0
-103 -223 0
-104 -224 0
-105 -225 0
-156 -426 0
-157 -427 0
-158 -428 0
-159 -429 0
-160 -430 0
-6 -156 0
-7 -157 0
-8 -158 0
-9 -159 0
-10 -160 0
-56 -306 0
-57 -307 0
-58 -308 0
-59 -309 0
-60 -310 0
-111 -346 0
-112 -347 0
-113 -348 0
-114 -349 0
-115 -350 0
-16 -131 0
-17 -132 0
-18 -133 0
-19 -134 0
-20 -135 0
-416 -441 0
-417 -442 0
-418 -443 0
-419 -444 0
-420 -445 0
-281 -361 0
-282 -362 0
-283 -363 0
-284 -364 0
-285 -365 0
-16 -461 0
-17 -462 0
-18 -463 0
-19 -464 0
-20 -465 0
-186 -406 0
-187 -407 0
-188 -408 0
-189 -409 0
-190 -410 0
-36 -316 0
-37 -317 0
-38 -318 0
-39 -319 0
-40 -320 0
-71 -486 0
-72 -487 0
-73 -488 0
-74 -489 0
-75 -490 0
-76 -106 0
-77 -107 0
-78 -108 0
-79 -109 0
-80 -110 0
-126 -361 0
-127 -362 0
-128 -363 0
-129 -364 0
-130 -365 0
-366 -451 0
-367 -452 0
-368 -453 0
-369 -454 0
-370 -455 0
-11 -141 0
-12 -142 0
-13 -143 0
-14 -144 0
-15 -145 0
-171 -321 0
-172 -322 0
-173 -323 0
-174 -324 0
-175 -325 0
-231 -401 0
-232 -402 0
-233 -403 0
-234 -404 0
-235 -405 0
-46 -261 0
-47 -262 0
-48 -263 0
-49 -264 0
-50 -265 0
-106 -446 0
-107 -447 0
-108 -448 0
-109 -449 0
-110 -450 0
-71 -201 0
-72 -202 0
-73 -203 0
-74 -204 0
-75 -205 0
-1 -201 0
-2 -202 0
-3 -203 0
-4 -204 0
-5 -205 0
-191 -231 0
-192 -232 0
-193 -233 0
-194 -234 0
-195 -235 0
-91 -441 0
-92 -442 0
-93 -443 0
-94 -444 0
-95 -445 0
-191 -276 0
-192 -277 0
-193 -278 0
-194 -279 0
-195 -280 0
-111 -481 0
-112 -482 0
-113 -483 0
-114 -484 0
-115 -485 0
-61 -141 0
-62 -142 0
-63 -143 0
-64 -144 0
-65 -145 0
-61 -231 0
-62 -232 0
-63 -233 0
-64 -234 0
-65 -235 0
-266 -396 0
-267 -397 0
-268 -398 0
-269 -399 0
-270 -400 0
-116 -491 0
-117 -492 0
-118 -493 0
-119 -494 0
-120 -495 0
-151 -286 0
-152 -287 0
-153 -288 0
-154 -289 0
-155 -290 0
-111 -226 0
-112 -227 0
-113 -228 0
-114 -229 0
-115 -230 0
-426 -476 0
-427 -477 0
-428 -478 0
-429 -479 0
-430 -480 0
-156 -406 0
-157 -407 0
-158 -408 0
-159 -409 0
-160 -410 0
-96 -426 0
-97 -427 0
-98 -428 0
-99 -429 0
-100 -430 0
-381 -461 0
-382 -462 0
-383 -463 0
-384 -464 0
-385 -465 0
-236 -316 0
-237 -317 0
-238 -318 0
-239 -319 0
-240 -320 0
-326 -386 0
-327 -387 0
-328 -388 0
-329 -389 0
-330 -390 0
-106 -201 0
-107 -202 0
-108 -203 0
-109 -204 0
-110 -205 0
-266 -406 0
-267 -407 0
-268 -408 0
-269 -409 0
-270 -410 0
-76 -236 0
-77 -237 0
-78 -238 0
-79 -239 0
-80 -240 0
-86 -146 0
-87 -147 0
-88 -148 0
-89 -149 0
-90 -150 0
-141 -256 0
-142 -257 0
-143 -258 0
-144 -259 0
-145 -260 0
-456 -491 0
-457 -492 0
-458 -493 0
-459 -494 0
-460 -495 0
-356 -411 0
-357 -412 0
-358 -413 0
-359 -414 0
-360 -415 0
-86 -321 0
-87 -322 0
-88 -323 0
-89 -324 0
-90 -325 0
-51 -251 0
-52 -252 0
-53 -253 0
-54 -254 0
-55 -255 0
-81 -266 0
-82 -267 0
-83 -268 0
-84 -269 0
-85 -270 0
-166 -391 0
-167 -392 0
-168 -393 0
-169 -394 0
-170 -395 0
-6 -266 0
-7 -267 0
-8 -268 0
-9 -269 0
-10 -270 0
-241 -446 0
-242 -447 0
-243 -448 0
-244 -449 0
-245 -450 0
-6 -466 0
-7 -467 0
-8 -468 0
-9 -469 0
-10 -470 0
-191 -301 0
-192 -302 0
-193 -303 0
-194 -304 0
-195 -305 0
-221 -301 0
-222 -302 0
-223 -303 0
-224 -304 0
-225 -305 0
-386 -481 0
-387 -482 0
-388 -483 0
-389 -484 0
-390 -485 0
-41 -321 0
-42 -322 0
-43 -323 0
-44 -324 0
-45 -325 0
-371 -451 0
-372 -452 0
-373 -453 0
-374 -454 0
-375 -455 0
-371 -416 0
-372 -417 0
-373 -418 0
-374 -419 0
-375 -420 0
-136 -306 0
-137 -307 0
-138 -308 0
-139 -309 0
-140 -310 0
-171 -356 0
-172 -357 0
-173 -358 0
-174 -359 0
-175 -360 0
-341 -401 0
-342 -402 0
-343 -403 0
-344 -404 0
-345 -405 0
-201 -236 0
-202 -237 0
-203 -238 0
-204 -239 0
-205 -240 0
-91 -126 0
-92 -127 0
-93 -128 0
-94 -129 0
-95 -130 0
-91 -396 0
-92 -397 0
-93 -398 0
-94 -399 0
-95 -400 0
-31 -311 0
-32 -312 0
-33 -313 0
-34 -314 0
-35 -315 0
-6 -471 0
-7 -472 0
-8 -473 0
-9 -474 0
-10 -475 0
-201 -461 0
-202 -462 0
-203 -463 0
-204 -464 0
-205 -465 0
-16 -261 0
-17 -262 0
-18 -263 0
-19 -264 0
-20 -265 0
-321 -416 0
-322 -417 0
-323 -418 0
-324 -419 0
-325 -420 0
-96 -401 0
-97 -402 0
-98 -403 0
-99 -404 0
-100 -405 0
-276 -361 0
-277 -362 0
-278 -363 0
-279 -364 0
-280 -365 0
-6 -256 0
-7 -257 0
-8 -258 0
-9 -259 0
-10 -260 0
-146 -386 0
-147 -387 0
-148 -388 0
-149 -389 0
-150 -390 0
-176 -306 0
-177 -307 0
-178 -308 0
-179 -309 0
-180 -310 0
-121 -281 0
-122 -282 0
-123 -283 0
-124 -284 0
-125 -285 0
-366 -471 0
-367 -472 0
-368 -473 0
-369 -474 0
-370 -475 0
-156 -346 0
-157 -347 0
-158 -348 0
-159 -349 0
-160 -350 0
-296 -461 0
-297 -462 0
-298 -463 0
-299 -464 0
-300 -465 0
-446 -471 0
-447 -472 0
-448 -473 0
-449 -474 0
-450 -475 0
-16 -376 0
-17 -377 0
-18 -378 0
-19 -379 0
-20 -380 0
-176 -496 0
-177 -497 0
-178 -498 0
-179 -499 0
-180 -500 0
-126 -386 0
-127 -387 0
-128 -388 0
-129 -389 0
-130 -390 0
-1 -311 0
-2 -312 0
-3 -313 0
-4 -314 0
-5 -315 0
-151 -376 0
-152 -377 0
-153 -378 0
-154 -379 0
-155 -380 0
